results_rootrelaxation/bin012_070_047.srr.sol
solution status: optimal solution found
objective value:                                 8.15
_var683_                            0.362121212121217 	(obj:1)
_var698_                           0.0924242424242399 	(obj:2)
_var700_                            0.187878787878788 	(obj:0)
_var732_                            0.396969696969699 	(obj:1)
_var736_                            0.136363636363632 	(obj:1)
_var738_                           0.0515151515151526 	(obj:1)
_var746_                            0.433333333333334 	(obj:1)
_var748_                            0.227272727272728 	(obj:0)
_var751_                            0.774242424242422 	(obj:0)
_var760_                            0.116666666666665 	(obj:1)
_var766_                            0.278787878787878 	(obj:1)
_var768_                           0.0924242424242421 	(obj:0)
_var772_                            0.433333333333334 	(obj:0)
_var781_                           0.0515151515151498 	(obj:0)
_var782_                           0.0378787878787873 	(obj:1)
_var791_                            0.143939393939393 	(obj:1)
_var796_                            0.866666666666664 	(obj:1)
_var798_                             0.37121212121212 	(obj:2)
_var805_                            0.116666666666665 	(obj:1)
_var808_                            0.412121212121217 	(obj:1)
_var811_                            0.433333333333333 	(obj:0)
_var820_                            0.154545454545452 	(obj:2)
_var827_                           0.0712121212121228 	(obj:1)
_var834_                           0.0515151515151526 	(obj:1)
_var837_                            0.100000000000007 	(obj:1)
_var841_                            0.495454545454544 	(obj:1)
_var847_                            0.248484848484848 	(obj:0)
_var849_                            0.378787878787879 	(obj:1)
_var850_                            0.225757575757578 	(obj:1)
_var858_                            0.339393939393939 	(obj:0)
_var859_                           0.0515151515151498 	(obj:1)
_var866_                           0.0378787878787873 	(obj:1)
_var867_                            0.407575757575757 	(obj:1)
_var873_                           0.0712121212121228 	(obj:2)
_var875_                           0.0621212121212135 	(obj:2)
_var876_                            0.145454545454545 	(obj:0)
_var877_                            0.278787878787878 	(obj:0)
_var879_                             0.13030303030303 	(obj:0)
_var887_                            0.118181818181818 	(obj:0)
_var889_                           0.0712121212121253 	(obj:0)
_var891_                            0.207575757575752 	(obj:1)
_var893_                           0.0621212121212135 	(obj:1)
_var896_                           0.0818181818181837 	(obj:2)
_var897_                            0.131818181818184 	(obj:0)
_var898_                            0.192424242424239 	(obj:2)
_var903_                            0.263636363636363 	(obj:1)
_var907_                            0.015151515151515 	(obj:2)
_var908_                           0.0712121212121208 	(obj:0)
_var911_                            0.037878787878794 	(obj:1)
_var912_                            0.133333333333336 	(obj:0)
_var913_                           0.0727272727272754 	(obj:2)
_var917_                            0.154545454545452 	(obj:1)
_var918_                            0.015151515151515 	(obj:0)
_var919_                           0.0242424242424227 	(obj:1)
_var922_                           0.0803030303030331 	(obj:0)
